(set-logic QF_UF)
(set-info :source |
Generating minimum transitivity constraints in P-time for deciding Equality Logic,
Ofer Strichman and Mirron Rozanov,
SMT Workshop 2005.

Translator: Leonardo de Moura. |)
(set-info :smt-lib-version 2.0)
(set-info :category "crafted")
(set-info :status unsat)
(declare-sort U 0)
(declare-fun x0 () U)
(declare-fun y0 () U)
(declare-fun z0 () U)
(declare-fun x1 () U)
(declare-fun y1 () U)
(declare-fun z1 () U)
(declare-fun x2 () U)
(declare-fun y2 () U)
(declare-fun z2 () U)
(declare-fun x3 () U)
(declare-fun y3 () U)
(declare-fun z3 () U)
(declare-fun x4 () U)
(declare-fun y4 () U)
(declare-fun z4 () U)
(declare-fun x5 () U)
(declare-fun y5 () U)
(declare-fun z5 () U)
(declare-fun x6 () U)
(declare-fun y6 () U)
(declare-fun z6 () U)
(declare-fun x7 () U)
(declare-fun y7 () U)
(declare-fun z7 () U)
(declare-fun x8 () U)
(declare-fun y8 () U)
(declare-fun z8 () U)
(declare-fun x9 () U)
(declare-fun y9 () U)
(declare-fun z9 () U)
(declare-fun x10 () U)
(declare-fun y10 () U)
(declare-fun z10 () U)
(declare-fun x11 () U)
(declare-fun y11 () U)
(declare-fun z11 () U)
(declare-fun x12 () U)
(declare-fun y12 () U)
(declare-fun z12 () U)
(declare-fun x13 () U)
(declare-fun y13 () U)
(declare-fun z13 () U)
(declare-fun x14 () U)
(declare-fun y14 () U)
(declare-fun z14 () U)
(declare-fun x15 () U)
(declare-fun y15 () U)
(declare-fun z15 () U)
(declare-fun x16 () U)
(declare-fun y16 () U)
(declare-fun z16 () U)
(declare-fun x17 () U)
(declare-fun y17 () U)
(declare-fun z17 () U)
(declare-fun x18 () U)
(declare-fun y18 () U)
(declare-fun z18 () U)
(declare-fun x19 () U)
(declare-fun y19 () U)
(declare-fun z19 () U)
(declare-fun x20 () U)
(declare-fun y20 () U)
(declare-fun z20 () U)
(declare-fun x21 () U)
(declare-fun y21 () U)
(declare-fun z21 () U)
(declare-fun x22 () U)
(declare-fun y22 () U)
(declare-fun z22 () U)
(declare-fun x23 () U)
(declare-fun y23 () U)
(declare-fun z23 () U)
(declare-fun x24 () U)
(declare-fun y24 () U)
(declare-fun z24 () U)
(declare-fun x25 () U)
(declare-fun y25 () U)
(declare-fun z25 () U)
(declare-fun x26 () U)
(declare-fun y26 () U)
(declare-fun z26 () U)
(declare-fun x27 () U)
(declare-fun y27 () U)
(declare-fun z27 () U)
(declare-fun x28 () U)
(declare-fun y28 () U)
(declare-fun z28 () U)
(declare-fun x29 () U)
(declare-fun y29 () U)
(declare-fun z29 () U)
(declare-fun x30 () U)
(declare-fun y30 () U)
(declare-fun z30 () U)
(declare-fun x31 () U)
(declare-fun y31 () U)
(declare-fun z31 () U)
(declare-fun x32 () U)
(declare-fun y32 () U)
(declare-fun z32 () U)
(declare-fun x33 () U)
(declare-fun y33 () U)
(declare-fun z33 () U)
(declare-fun x34 () U)
(declare-fun y34 () U)
(declare-fun z34 () U)
(declare-fun x35 () U)
(declare-fun y35 () U)
(declare-fun z35 () U)
(declare-fun x36 () U)
(declare-fun y36 () U)
(declare-fun z36 () U)
(declare-fun x37 () U)
(declare-fun y37 () U)
(declare-fun z37 () U)
(declare-fun x38 () U)
(declare-fun y38 () U)
(declare-fun z38 () U)
(declare-fun x39 () U)
(declare-fun y39 () U)
(declare-fun z39 () U)
(declare-fun x40 () U)
(declare-fun y40 () U)
(declare-fun z40 () U)
(declare-fun x41 () U)
(declare-fun y41 () U)
(declare-fun z41 () U)
(declare-fun x42 () U)
(declare-fun y42 () U)
(declare-fun z42 () U)
(declare-fun x43 () U)
(declare-fun y43 () U)
(declare-fun z43 () U)
(declare-fun x44 () U)
(declare-fun y44 () U)
(declare-fun z44 () U)
(declare-fun x45 () U)
(declare-fun y45 () U)
(declare-fun z45 () U)
(declare-fun x46 () U)
(declare-fun y46 () U)
(declare-fun z46 () U)
(declare-fun x47 () U)
(declare-fun y47 () U)
(declare-fun z47 () U)
(declare-fun x48 () U)
(declare-fun y48 () U)
(declare-fun z48 () U)
(declare-fun x49 () U)
(declare-fun y49 () U)
(declare-fun z49 () U)
(declare-fun x50 () U)
(declare-fun y50 () U)
(declare-fun z50 () U)
(declare-fun x51 () U)
(declare-fun y51 () U)
(declare-fun z51 () U)
(declare-fun x52 () U)
(declare-fun y52 () U)
(declare-fun z52 () U)
(declare-fun x53 () U)
(declare-fun y53 () U)
(declare-fun z53 () U)
(declare-fun x54 () U)
(declare-fun y54 () U)
(declare-fun z54 () U)
(declare-fun x55 () U)
(declare-fun y55 () U)
(declare-fun z55 () U)
(declare-fun x56 () U)
(declare-fun y56 () U)
(declare-fun z56 () U)
(declare-fun x57 () U)
(declare-fun y57 () U)
(declare-fun z57 () U)
(declare-fun x58 () U)
(declare-fun y58 () U)
(declare-fun z58 () U)
(declare-fun x59 () U)
(declare-fun y59 () U)
(declare-fun z59 () U)
(declare-fun x60 () U)
(declare-fun y60 () U)
(declare-fun z60 () U)
(declare-fun x61 () U)
(declare-fun y61 () U)
(declare-fun z61 () U)
(declare-fun x62 () U)
(declare-fun y62 () U)
(declare-fun z62 () U)
(declare-fun x63 () U)
(declare-fun y63 () U)
(declare-fun z63 () U)
(declare-fun x64 () U)
(declare-fun y64 () U)
(declare-fun z64 () U)
(declare-fun x65 () U)
(declare-fun y65 () U)
(declare-fun z65 () U)
(declare-fun x66 () U)
(declare-fun y66 () U)
(declare-fun z66 () U)
(declare-fun x67 () U)
(declare-fun y67 () U)
(declare-fun z67 () U)
(declare-fun x68 () U)
(declare-fun y68 () U)
(declare-fun z68 () U)
(declare-fun x69 () U)
(declare-fun y69 () U)
(declare-fun z69 () U)
(declare-fun x70 () U)
(declare-fun y70 () U)
(declare-fun z70 () U)
(declare-fun x71 () U)
(declare-fun y71 () U)
(declare-fun z71 () U)
(declare-fun x72 () U)
(declare-fun y72 () U)
(declare-fun z72 () U)
(declare-fun x73 () U)
(declare-fun y73 () U)
(declare-fun z73 () U)
(declare-fun x74 () U)
(declare-fun y74 () U)
(declare-fun z74 () U)
(declare-fun x75 () U)
(declare-fun y75 () U)
(declare-fun z75 () U)
(declare-fun x76 () U)
(declare-fun y76 () U)
(declare-fun z76 () U)
(declare-fun x77 () U)
(declare-fun y77 () U)
(declare-fun z77 () U)
(declare-fun x78 () U)
(declare-fun y78 () U)
(declare-fun z78 () U)
(declare-fun x79 () U)
(declare-fun y79 () U)
(declare-fun z79 () U)
(declare-fun x80 () U)
(declare-fun y80 () U)
(declare-fun z80 () U)
(declare-fun x81 () U)
(declare-fun y81 () U)
(declare-fun z81 () U)
(declare-fun x82 () U)
(declare-fun y82 () U)
(declare-fun z82 () U)
(declare-fun x83 () U)
(declare-fun y83 () U)
(declare-fun z83 () U)
(declare-fun x84 () U)
(declare-fun y84 () U)
(declare-fun z84 () U)
(declare-fun x85 () U)
(declare-fun y85 () U)
(declare-fun z85 () U)
(declare-fun x86 () U)
(declare-fun y86 () U)
(declare-fun z86 () U)
(declare-fun x87 () U)
(declare-fun y87 () U)
(declare-fun z87 () U)
(declare-fun x88 () U)
(declare-fun y88 () U)
(declare-fun z88 () U)
(declare-fun x89 () U)
(declare-fun y89 () U)
(declare-fun z89 () U)
(declare-fun x90 () U)
(declare-fun y90 () U)
(declare-fun z90 () U)
(declare-fun x91 () U)
(declare-fun y91 () U)
(declare-fun z91 () U)
(declare-fun x92 () U)
(declare-fun y92 () U)
(declare-fun z92 () U)
(declare-fun x93 () U)
(declare-fun y93 () U)
(declare-fun z93 () U)
(declare-fun x94 () U)
(declare-fun y94 () U)
(declare-fun z94 () U)
(declare-fun x95 () U)
(declare-fun y95 () U)
(declare-fun z95 () U)
(declare-fun x96 () U)
(declare-fun y96 () U)
(declare-fun z96 () U)
(declare-fun x97 () U)
(declare-fun y97 () U)
(declare-fun z97 () U)
(declare-fun x98 () U)
(declare-fun y98 () U)
(declare-fun z98 () U)
(declare-fun x99 () U)
(declare-fun y99 () U)
(declare-fun z99 () U)
(assert (and (or (and (= x0 y0) (= y0 x1)) (and (= x0 z0) (= z0 x1))) (or (and (= x1 y1) (= y1 x2)) (and (= x1 z1) (= z1 x2))) (or (and (= x2 y2) (= y2 x3)) (and (= x2 z2) (= z2 x3))) (or (and (= x3 y3) (= y3 x4)) (and (= x3 z3) (= z3 x4))) (or (and (= x4 y4) (= y4 x5)) (and (= x4 z4) (= z4 x5))) (or (and (= x5 y5) (= y5 x6)) (and (= x5 z5) (= z5 x6))) (or (and (= x6 y6) (= y6 x7)) (and (= x6 z6) (= z6 x7))) (or (and (= x7 y7) (= y7 x8)) (and (= x7 z7) (= z7 x8))) (or (and (= x8 y8) (= y8 x9)) (and (= x8 z8) (= z8 x9))) (or (and (= x9 y9) (= y9 x10)) (and (= x9 z9) (= z9 x10))) (or (and (= x10 y10) (= y10 x11)) (and (= x10 z10) (= z10 x11))) (or (and (= x11 y11) (= y11 x12)) (and (= x11 z11) (= z11 x12))) (or (and (= x12 y12) (= y12 x13)) (and (= x12 z12) (= z12 x13))) (or (and (= x13 y13) (= y13 x14)) (and (= x13 z13) (= z13 x14))) (or (and (= x14 y14) (= y14 x15)) (and (= x14 z14) (= z14 x15))) (or (and (= x15 y15) (= y15 x16)) (and (= x15 z15) (= z15 x16))) (or (and (= x16 y16) (= y16 x17)) (and (= x16 z16) (= z16 x17))) (or (and (= x17 y17) (= y17 x18)) (and (= x17 z17) (= z17 x18))) (or (and (= x18 y18) (= y18 x19)) (and (= x18 z18) (= z18 x19))) (or (and (= x19 y19) (= y19 x20)) (and (= x19 z19) (= z19 x20))) (or (and (= x20 y20) (= y20 x21)) (and (= x20 z20) (= z20 x21))) (or (and (= x21 y21) (= y21 x22)) (and (= x21 z21) (= z21 x22))) (or (and (= x22 y22) (= y22 x23)) (and (= x22 z22) (= z22 x23))) (or (and (= x23 y23) (= y23 x24)) (and (= x23 z23) (= z23 x24))) (or (and (= x24 y24) (= y24 x25)) (and (= x24 z24) (= z24 x25))) (or (and (= x25 y25) (= y25 x26)) (and (= x25 z25) (= z25 x26))) (or (and (= x26 y26) (= y26 x27)) (and (= x26 z26) (= z26 x27))) (or (and (= x27 y27) (= y27 x28)) (and (= x27 z27) (= z27 x28))) (or (and (= x28 y28) (= y28 x29)) (and (= x28 z28) (= z28 x29))) (or (and (= x29 y29) (= y29 x30)) (and (= x29 z29) (= z29 x30))) (or (and (= x30 y30) (= y30 x31)) (and (= x30 z30) (= z30 x31))) (or (and (= x31 y31) (= y31 x32)) (and (= x31 z31) (= z31 x32))) (or (and (= x32 y32) (= y32 x33)) (and (= x32 z32) (= z32 x33))) (or (and (= x33 y33) (= y33 x34)) (and (= x33 z33) (= z33 x34))) (or (and (= x34 y34) (= y34 x35)) (and (= x34 z34) (= z34 x35))) (or (and (= x35 y35) (= y35 x36)) (and (= x35 z35) (= z35 x36))) (or (and (= x36 y36) (= y36 x37)) (and (= x36 z36) (= z36 x37))) (or (and (= x37 y37) (= y37 x38)) (and (= x37 z37) (= z37 x38))) (or (and (= x38 y38) (= y38 x39)) (and (= x38 z38) (= z38 x39))) (or (and (= x39 y39) (= y39 x40)) (and (= x39 z39) (= z39 x40))) (or (and (= x40 y40) (= y40 x41)) (and (= x40 z40) (= z40 x41))) (or (and (= x41 y41) (= y41 x42)) (and (= x41 z41) (= z41 x42))) (or (and (= x42 y42) (= y42 x43)) (and (= x42 z42) (= z42 x43))) (or (and (= x43 y43) (= y43 x44)) (and (= x43 z43) (= z43 x44))) (or (and (= x44 y44) (= y44 x45)) (and (= x44 z44) (= z44 x45))) (or (and (= x45 y45) (= y45 x46)) (and (= x45 z45) (= z45 x46))) (or (and (= x46 y46) (= y46 x47)) (and (= x46 z46) (= z46 x47))) (or (and (= x47 y47) (= y47 x48)) (and (= x47 z47) (= z47 x48))) (or (and (= x48 y48) (= y48 x49)) (and (= x48 z48) (= z48 x49))) (or (and (= x49 y49) (= y49 x50)) (and (= x49 z49) (= z49 x50))) (or (and (= x50 y50) (= y50 x51)) (and (= x50 z50) (= z50 x51))) (or (and (= x51 y51) (= y51 x52)) (and (= x51 z51) (= z51 x52))) (or (and (= x52 y52) (= y52 x53)) (and (= x52 z52) (= z52 x53))) (or (and (= x53 y53) (= y53 x54)) (and (= x53 z53) (= z53 x54))) (or (and (= x54 y54) (= y54 x55)) (and (= x54 z54) (= z54 x55))) (or (and (= x55 y55) (= y55 x56)) (and (= x55 z55) (= z55 x56))) (or (and (= x56 y56) (= y56 x57)) (and (= x56 z56) (= z56 x57))) (or (and (= x57 y57) (= y57 x58)) (and (= x57 z57) (= z57 x58))) (or (and (= x58 y58) (= y58 x59)) (and (= x58 z58) (= z58 x59))) (or (and (= x59 y59) (= y59 x60)) (and (= x59 z59) (= z59 x60))) (or (and (= x60 y60) (= y60 x61)) (and (= x60 z60) (= z60 x61))) (or (and (= x61 y61) (= y61 x62)) (and (= x61 z61) (= z61 x62))) (or (and (= x62 y62) (= y62 x63)) (and (= x62 z62) (= z62 x63))) (or (and (= x63 y63) (= y63 x64)) (and (= x63 z63) (= z63 x64))) (or (and (= x64 y64) (= y64 x65)) (and (= x64 z64) (= z64 x65))) (or (and (= x65 y65) (= y65 x66)) (and (= x65 z65) (= z65 x66))) (or (and (= x66 y66) (= y66 x67)) (and (= x66 z66) (= z66 x67))) (or (and (= x67 y67) (= y67 x68)) (and (= x67 z67) (= z67 x68))) (or (and (= x68 y68) (= y68 x69)) (and (= x68 z68) (= z68 x69))) (or (and (= x69 y69) (= y69 x70)) (and (= x69 z69) (= z69 x70))) (or (and (= x70 y70) (= y70 x71)) (and (= x70 z70) (= z70 x71))) (or (and (= x71 y71) (= y71 x72)) (and (= x71 z71) (= z71 x72))) (or (and (= x72 y72) (= y72 x73)) (and (= x72 z72) (= z72 x73))) (or (and (= x73 y73) (= y73 x74)) (and (= x73 z73) (= z73 x74))) (or (and (= x74 y74) (= y74 x75)) (and (= x74 z74) (= z74 x75))) (or (and (= x75 y75) (= y75 x76)) (and (= x75 z75) (= z75 x76))) (or (and (= x76 y76) (= y76 x77)) (and (= x76 z76) (= z76 x77))) (or (and (= x77 y77) (= y77 x78)) (and (= x77 z77) (= z77 x78))) (or (and (= x78 y78) (= y78 x79)) (and (= x78 z78) (= z78 x79))) (or (and (= x79 y79) (= y79 x80)) (and (= x79 z79) (= z79 x80))) (or (and (= x80 y80) (= y80 x81)) (and (= x80 z80) (= z80 x81))) (or (and (= x81 y81) (= y81 x82)) (and (= x81 z81) (= z81 x82))) (or (and (= x82 y82) (= y82 x83)) (and (= x82 z82) (= z82 x83))) (or (and (= x83 y83) (= y83 x84)) (and (= x83 z83) (= z83 x84))) (or (and (= x84 y84) (= y84 x85)) (and (= x84 z84) (= z84 x85))) (or (and (= x85 y85) (= y85 x86)) (and (= x85 z85) (= z85 x86))) (or (and (= x86 y86) (= y86 x87)) (and (= x86 z86) (= z86 x87))) (or (and (= x87 y87) (= y87 x88)) (and (= x87 z87) (= z87 x88))) (or (and (= x88 y88) (= y88 x89)) (and (= x88 z88) (= z88 x89))) (or (and (= x89 y89) (= y89 x90)) (and (= x89 z89) (= z89 x90))) (or (and (= x90 y90) (= y90 x91)) (and (= x90 z90) (= z90 x91))) (or (and (= x91 y91) (= y91 x92)) (and (= x91 z91) (= z91 x92))) (or (and (= x92 y92) (= y92 x93)) (and (= x92 z92) (= z92 x93))) (or (and (= x93 y93) (= y93 x94)) (and (= x93 z93) (= z93 x94))) (or (and (= x94 y94) (= y94 x95)) (and (= x94 z94) (= z94 x95))) (or (and (= x95 y95) (= y95 x96)) (and (= x95 z95) (= z95 x96))) (or (and (= x96 y96) (= y96 x97)) (and (= x96 z96) (= z96 x97))) (or (and (= x97 y97) (= y97 x98)) (and (= x97 z97) (= z97 x98))) (or (and (= x98 y98) (= y98 x99)) (and (= x98 z98) (= z98 x99))) (not (= x0 x99))))
(check-sat)
(exit)
